35
24
0 25 26 27 29 31 32 33
1 24 25 26 27 28 33 34
2 24 25 31 33 34
3 25 26 27 31 33
4 25 26 27 30 33 34
5 24 25 26 27 29 33 34
6 27 30 33 34
7 24 25 26 29 33
8 25 26 27 33 34
9 24 31
10 24 26 27 34
11 24 25 27 31 32 33
12 24 25 26 33
13 25 27 29 33
14 25 27 29 31
15 24 25 26 27 29 30 34
16 24 28 29 32 33
17 24 31
18 32 33
19 31
20 27 29 32 33
21
22 28 30
23
